proyfinal/src/viki/013/andrea/andrea-localstore/experimentInOfficeAgust.take6/worker_3/be5d3e27-55cb-4416-8765-392e57e58d8e.als.cnf.out
Reading from standard input... Use '--help' for help.
============================[ Problem Statistics ]=============================
|                                                                             |
|  Number of variables:         87638                                         |
|  Number of clauses:          161767                                         |
|  Parse time:                   0.03 s                                       |
|                                                                             |
============================[ Search Statistics ]==============================
| Conflicts |          ORIGINAL         |          LEARNT          | Progress |
|           |    Vars  Clauses Literals |    Limit  Clauses Lit/Cl |          |
===============================================================================
|       100 |   65060   115009   286752 |    42169      100      8 | 25.763 % |
|       250 |   65060   115009   286752 |    46386      250     23 | 25.763 % |
|       475 |   65060   115009   286752 |    51025      475     29 | 25.763 % |
|       812 |   65060   115009   286752 |    56128      812     47 | 25.763 % |
|      1318 |   65060   115009   286752 |    61741     1318     52 | 25.763 % |
|      2077 |   65060   115009   286752 |    67915     2077     59 | 25.763 % |
|      3216 |   65024   114859   286406 |    74706     3214    107 | 25.804 % |
|      4924 |   59959    98890   247035 |    82177     4916     93 | 31.583 % |
|      7486 |   59908    98594   246304 |    90395     7476     97 | 31.642 % |
|     11330 |   59812    98090   245159 |    99434    11283    106 | 31.751 % |
|     17096 |   59756    97865   244629 |   109378    17042    108 | 31.815 % |
===============================================================================
restarts              : 77
conflicts             : 21336          (7500 /sec)
decisions             : 88440          (0.00 % random) (31087 /sec)
propagations          : 32104845       (11284846 /sec)
conflict literals     : 2214015        (30.42 % deleted)
Memory used           : 43.71 MB
CPU time              : 2.84495 s

INDETERMINATE
